NAME : local_8
TYPE : ATSP
DIMENSION : 37
EDGE_WEIGHT_TYPE : EXPLICIT
EDGE_WEIGHT_FORMAT : FULL_MATRIX
EDGE_WEIGHT_SECTION
0 10000000 10000000 10000000 10000000 10000000 10000000 10000000 10000000 10000000 10000000 654 10000000 816 10000000 550 10000000 10000000 1123 10000000 10000000 10000000 906 815 10000000 10000000 541 208 10000000 10000000 706 10000000 887 10000000 701 10000000 10000000 
0 0 806 167 10000000 10000000 586 942 10000000 10000000 10000000 975 10000000 10000000 10000000 10000000 10000000 10000000 10000000 10000000 10000000 10000000 791 938 10000000 10000000 10000000 10000000 433 454 10000000 714 10000000 399 10000000 10000000 10000000 
0 798 0 762 10000000 10000000 10000000 481 10000000 852 10000000 10000000 10000000 10000000 10000000 10000000 10000000 10000000 10000000 10000000 10000000 10000000 10000000 10000000 10000000 844 10000000 10000000 800 10000000 10000000 10000000 10000000 10000000 10000000 10000000 10000000 
0 167 762 0 10000000 10000000 474 843 10000000 10000000 10000000 811 10000000 10000000 10000000 10000000 10000000 10000000 10000000 10000000 10000000 10000000 652 797 10000000 10000000 10000000 10000000 266 441 10000000 592 10000000 321 10000000 10000000 10000000 
0 10000000 10000000 10000000 0 687 773 10000000 10000000 10000000 714 10000000 10000000 10000000 994 10000000 10000000 10000000 10000000 10000000 900 363 887 938 893 10000000 10000000 10000000 10000000 694 10000000 783 10000000 797 10000000 10000000 433 
0 10000000 10000000 10000000 743 0 10000000 10000000 559 10000000 516 10000000 736 10000000 721 10000000 10000000 10000000 10000000 10000000 288 901 10000000 10000000 10000000 488 10000000 10000000 10000000 10000000 10000000 10000000 10000000 10000000 10000000 966 320 
0 586 10000000 474 773 10000000 0 10000000 10000000 10000000 10000000 764 10000000 651 10000000 810 10000000 10000000 10000000 10000000 10000000 655 245 383 732 10000000 10000000 10000000 404 324 941 133 10000000 204 10000000 10000000 918 
0 942 481 843 10000000 10000000 10000000 0 795 372 10000000 640 968 10000000 10000000 10000000 10000000 10000000 10000000 10000000 1083 10000000 10000000 10000000 10000000 848 10000000 10000000 720 10000000 10000000 10000000 10000000 10000000 651 10000000 10000000 
0 10000000 10000000 10000000 10000000 559 10000000 795 0 732 742 1100 308 10000000 740 10000000 629 608 797 773 474 10000000 10000000 10000000 10000000 503 10000000 10000000 10000000 10000000 10000000 10000000 10000000 10000000 962 695 741 
0 10000000 852 10000000 10000000 10000000 10000000 372 732 0 10000000 539 787 10000000 10000000 10000000 697 885 762 10000000 10000000 10000000 10000000 10000000 10000000 993 726 895 880 10000000 10000000 10000000 673 10000000 341 10000000 10000000 
0 10000000 10000000 10000000 714 516 10000000 10000000 742 10000000 0 10000000 702 985 293 10000000 10000000 840 10000000 761 769 629 1058 987 823 952 10000000 10000000 10000000 10000000 10000000 1043 10000000 10000000 10000000 691 362 
0 975 10000000 811 10000000 10000000 764 640 1135 539 10000000 0 1085 876 10000000 785 976 10000000 988 10000000 10000000 10000000 634 654 10000000 10000000 682 611 550 10000000 10000000 730 861 857 401 10000000 10000000 
0 10000000 10000000 10000000 10000000 736 10000000 968 308 787 702 1151 0 10000000 579 10000000 389 304 552 473 743 10000000 10000000 10000000 10000000 805 10000000 10000000 10000000 10000000 10000000 10000000 866 10000000 915 401 841 
0 10000000 10000000 10000000 10000000 10000000 651 10000000 10000000 10000000 1025 876 10000000 0 1003 289 10000000 10000000 10000000 10000000 10000000 677 446 308 230 10000000 10000000 979 921 930 321 520 10000000 854 10000000 10000000 1048 
0 10000000 10000000 10000000 994 721 10000000 10000000 740 10000000 293 10000000 579 958 0 10000000 826 620 930 486 924 846 10000000 10000000 869 10000000 10000000 10000000 10000000 10000000 10000000 10000000 10000000 10000000 10000000 430 637 
0 10000000 10000000 10000000 10000000 10000000 810 10000000 10000000 10000000 10000000 785 10000000 289 10000000 0 10000000 10000000 10000000 10000000 10000000 960 571 431 497 10000000 10000000 734 977 10000000 220 685 10000000 10000000 10000000 10000000 10000000 
0 10000000 10000000 10000000 10000000 10000000 10000000 10000000 629 697 10000000 1018 389 10000000 826 10000000 0 238 168 488 10000000 10000000 10000000 10000000 10000000 10000000 840 1079 10000000 10000000 10000000 10000000 501 10000000 687 459 10000000 
0 10000000 10000000 10000000 10000000 10000000 10000000 10000000 608 885 840 10000000 304 10000000 620 10000000 238 0 339 262 10000000 10000000 10000000 10000000 10000000 10000000 1064 10000000 10000000 10000000 10000000 10000000 715 10000000 928 232 10000000 
0 10000000 10000000 10000000 10000000 10000000 10000000 10000000 797 762 10000000 1020 552 10000000 930 10000000 168 339 0 539 10000000 10000000 10000000 10000000 10000000 10000000 722 944 10000000 10000000 10000000 10000000 388 10000000 688 533 10000000 
0 10000000 10000000 10000000 10000000 10000000 10000000 10000000 773 10000000 761 10000000 473 10000000 486 10000000 488 262 539 0 10000000 10000000 10000000 10000000 10000000 10000000 10000000 10000000 10000000 10000000 10000000 10000000 912 10000000 10000000 95 10000000 
0 10000000 10000000 10000000 916 288 10000000 1045 474 10000000 769 10000000 743 10000000 924 10000000 10000000 10000000 10000000 10000000 0 10000000 10000000 10000000 10000000 202 10000000 10000000 10000000 10000000 10000000 10000000 10000000 10000000 10000000 10000000 572 
0 10000000 10000000 10000000 363 933 655 10000000 10000000 10000000 629 10000000 10000000 677 846 960 10000000 10000000 10000000 10000000 10000000 0 678 680 534 10000000 10000000 10000000 10000000 714 969 605 10000000 765 10000000 10000000 516 
0 791 10000000 652 887 10000000 245 10000000 10000000 10000000 1100 634 10000000 446 10000000 571 10000000 10000000 10000000 10000000 10000000 678 0 146 580 10000000 10000000 10000000 484 566 719 133 10000000 441 987 10000000 1008 
0 938 10000000 797 938 10000000 383 10000000 10000000 10000000 1025 654 10000000 308 10000000 431 10000000 10000000 10000000 10000000 10000000 680 146 0 470 10000000 10000000 935 614 696 575 256 10000000 584 980 10000000 1026 
0 10000000 10000000 10000000 893 10000000 732 10000000 10000000 10000000 823 10000000 10000000 230 869 497 10000000 10000000 10000000 10000000 10000000 534 580 470 0 10000000 10000000 10000000 10000000 959 445 610 10000000 924 10000000 10000000 902 
0 10000000 844 10000000 10000000 488 10000000 848 503 993 952 10000000 805 10000000 10000000 10000000 10000000 10000000 10000000 10000000 202 10000000 10000000 10000000 10000000 0 10000000 10000000 10000000 10000000 10000000 10000000 10000000 10000000 10000000 10000000 784 
0 10000000 10000000 10000000 10000000 10000000 10000000 10000000 10000000 726 10000000 682 10000000 10000000 10000000 10000000 833 1032 712 10000000 10000000 10000000 10000000 10000000 10000000 10000000 0 345 10000000 10000000 10000000 10000000 390 10000000 407 10000000 10000000 
0 10000000 10000000 10000000 10000000 10000000 10000000 10000000 10000000 895 10000000 611 10000000 979 10000000 734 1029 10000000 954 10000000 10000000 10000000 10000000 935 10000000 10000000 345 0 10000000 10000000 902 10000000 684 10000000 558 10000000 10000000 
0 433 800 266 10000000 10000000 404 720 10000000 880 10000000 550 10000000 921 10000000 977 10000000 10000000 10000000 10000000 10000000 10000000 484 614 10000000 10000000 10000000 10000000 0 551 10000000 475 10000000 373 913 10000000 10000000 
0 454 10000000 441 694 10000000 324 10000000 10000000 10000000 10000000 10000000 10000000 930 10000000 10000000 10000000 10000000 10000000 10000000 10000000 714 566 696 959 10000000 10000000 10000000 551 0 10000000 441 10000000 185 10000000 10000000 984 
0 10000000 10000000 10000000 10000000 10000000 941 10000000 10000000 10000000 10000000 10000000 10000000 321 10000000 220 10000000 10000000 10000000 10000000 10000000 969 719 575 445 10000000 10000000 902 10000000 10000000 0 813 10000000 10000000 10000000 10000000 10000000 
0 714 10000000 592 783 10000000 133 10000000 10000000 10000000 1082 730 10000000 520 10000000 685 10000000 10000000 10000000 10000000 10000000 605 133 256 610 10000000 10000000 10000000 475 441 813 0 10000000 337 10000000 10000000 907 
0 10000000 10000000 10000000 10000000 10000000 10000000 10000000 10000000 673 10000000 861 866 10000000 10000000 10000000 501 715 388 912 10000000 10000000 10000000 10000000 10000000 10000000 390 684 10000000 10000000 10000000 10000000 0 10000000 497 899 10000000 
0 399 10000000 321 797 10000000 204 10000000 10000000 10000000 10000000 857 10000000 854 10000000 10000000 10000000 10000000 10000000 10000000 10000000 765 441 584 924 10000000 10000000 10000000 373 185 10000000 337 10000000 0 10000000 10000000 1041 
0 10000000 10000000 10000000 10000000 10000000 10000000 651 984 341 10000000 401 926 10000000 10000000 10000000 687 951 688 10000000 10000000 10000000 987 980 10000000 10000000 407 558 913 10000000 10000000 10000000 497 10000000 0 10000000 10000000 
0 10000000 10000000 10000000 10000000 966 10000000 10000000 695 10000000 691 10000000 401 10000000 430 10000000 459 232 533 95 10000000 10000000 10000000 10000000 10000000 10000000 10000000 10000000 10000000 10000000 10000000 10000000 899 10000000 10000000 0 971 
0 10000000 10000000 10000000 10000000 10000000 10000000 10000000 10000000 10000000 10000000 10000000 10000000 10000000 10000000 10000000 10000000 10000000 10000000 10000000 10000000 10000000 10000000 10000000 10000000 10000000 10000000 10000000 10000000 10000000 10000000 10000000 10000000 10000000 10000000 10000000 0 
EOF